\ENCODING=ISO-8859-1
\Problem name: 

Minimize
 obj1: 7.32421875 x_d0_p0 + 3.125 x_d1_p0 + x_d2_p0 + 3.125 x_d3_p0
       + 15.2587890625 x_d4_p0 + 3.125 x_d5_p0 + 7.32421875 x_d6_p0
Subject To
 demand_0_9_0:      x_d0_p0  = 1
 demand_0_8_1:      x_d1_p0  = 0.666666666666667
 demand_6_9_2:      x_d2_p0  = 0.8
 demand_5_1_3:      x_d3_p0  = 1.11111111111111
 demand_7_0_4:      x_d4_p0  = 0.833333333333333
 demand_7_9_5:      x_d5_p0  = 0.714285714285714
 demand_3_8_6:      x_d6_p0  = 0.909090909090909
 capacity_0_1:      2.44140625 x_d0_p0 + 1.5625 x_d1_p0
                    + 3.814697265625 x_d4_p0 <= 175.979899497487
 capacity_1_2:      3.814697265625 x_d4_p0 + 2.44140625 x_d6_p0
                    <= 145.527638190955
 capacity_1_8:      2.44140625 x_d0_p0 + 1.5625 x_d1_p0 + 2.44140625 x_d6_p0
                    <= 105.326633165829
 capacity_1_4:      1.5625 x_d3_p0 <= 89.9497487437186
 capacity_2_3:      2.44140625 x_d6_p0 <= 167.738693467337
 capacity_2_6:      3.814697265625 x_d4_p0 <= 133.969849246231
 capacity_3_4:      <= 136.582914572864
 capacity_3_6:      <= 164.422110552764
 capacity_4_5:      1.5625 x_d3_p0 <= 114.371859296482
 capacity_4_7:      1.5625 x_d5_p0 <= 97.1859296482412
 capacity_4_9:      1.5625 x_d5_p0 <= 44.6231155778895
 capacity_6_7:      3.814697265625 x_d4_p0 <= 111.457286432161
 capacity_6_9:      x_d2_p0 <= 20.7035175879397
 capacity_8_9:      2.44140625 x_d0_p0 <= 145.929648241206
 memory_capacity_0: 2.26974268769287 x_d0_p0 + 2.90835917866733 x_d1_p0
                    + 3.3059584732869 x_d4_p0 <= 30
 memory_capacity_1: 1.99822970300749 x_d0_p0 + 2.26122271833211 x_d1_p0
                    + 1.4115313935859 x_d3_p0 + 1.5610937980109 x_d4_p0
                    + 3.0361952099435 x_d6_p0 <= 30
 memory_capacity_2: 3.72155608885859 x_d4_p0 + 1.874686168932 x_d6_p0 <= 30
 memory_capacity_3: 3.00458723983951 x_d6_p0 <= 30
 memory_capacity_4: 2.07636482293029 x_d3_p0 + 1.739170055343 x_d5_p0 <= 40
 memory_capacity_5: 2.0224016411151 x_d3_p0 <= 30
 memory_capacity_6: 0.215506934273 x_d2_p0 + 1.77766744554089 x_d4_p0 <= 30
 memory_capacity_7: 1.4398820083314 x_d4_p0 + 1.89190435147475 x_d5_p0 <= 35
 memory_capacity_8: 2.16727490924438 x_d0_p0 + 1.221052502265 x_d1_p0
                    + 1.436209151558 x_d6_p0 <= 30
 memory_capacity_9: 1.603957193675 x_d0_p0 + 0.19722482575125 x_d2_p0
                    + 0.38307876200375 x_d5_p0 <= 30
End
