\ENCODING=ISO-8859-1
\Problem name: 

Minimize
 obj1: 7.32421875 x_d0_p0 + 3.125 x_d1_p0 + x_d2_p0 + 3.125 x_d3_p0
       + 15.2587890625 x_d4_p0 + 3.125 x_d5_p0 + 7.32421875 x_d6_p0
Subject To
 demand_0_9_0: x_d0_p0  = 0.8
 demand_0_8_1: x_d1_p0  = 0.533333333333333
 demand_6_9_2: x_d2_p0  = 0.64
 demand_5_1_3: x_d3_p0  = 0.888888888888889
 demand_7_0_4: x_d4_p0  = 0.666666666666667
 demand_7_9_5: x_d5_p0  = 0.571428571428572
 demand_3_8_6: x_d6_p0  = 0.727272727272727
 capacity_0_1: 2.44140625 x_d0_p0 + 1.5625 x_d1_p0 + 3.814697265625 x_d4_p0
               <= 174.170854271357
 capacity_1_2: 3.814697265625 x_d4_p0 + 2.44140625 x_d6_p0 <= 145.829145728643
 capacity_1_8: 2.44140625 x_d0_p0 + 1.5625 x_d1_p0 + 2.44140625 x_d6_p0
               <= 104.824120603015
 capacity_1_4: 1.5625 x_d3_p0 <= 91.0552763819096
 capacity_2_3: 2.44140625 x_d6_p0 <= 168.140703517588
 capacity_2_6: 3.814697265625 x_d4_p0 <= 137.889447236181
 capacity_3_4: <= 135.376884422111
 capacity_3_6: <= 161.206030150754
 capacity_4_5: 1.5625 x_d3_p0 <= 115.175879396985
 capacity_4_7: 1.5625 x_d5_p0 <= 97.1859296482412
 capacity_4_9: 1.5625 x_d5_p0 <= 44.8241206030151
 capacity_6_7: 3.814697265625 x_d4_p0 <= 113.56783919598
 capacity_6_9: x_d2_p0 <= 19.2964824120603
 capacity_8_9: 2.44140625 x_d0_p0 <= 146.130653266332
End
