\ENCODING=ISO-8859-1
\Problem name: 

Minimize
 obj1: 10.6084369136961 x_d0_p0 + 3.125 x_d1_p0 + x_d2_p0 + 3.125 x_d3_p0
       + 47.0078322259092 x_d4_p0 + 3.125 x_d5_p0 + 10.6084369136961 x_d6_p0
Subject To
 demand_0_9_0: x_d0_p0  = 1
 demand_0_8_1: x_d1_p0  = 0.666666666666667
 demand_6_9_2: x_d2_p0  = 0.8
 demand_5_1_3: x_d3_p0  = 1.11111111111111
 demand_7_0_4: x_d4_p0  = 0.833333333333333
 demand_7_9_5: x_d5_p0  = 0.714285714285714
 demand_3_8_6: x_d6_p0  = 0.909090909090909
 capacity_0_1: 2.44140625 x_d0_p0 + 1.5625 x_d1_p0 + 20.1689677867089 x_d4_p0
               <= 175.879396984925
 capacity_1_2: 8.94628814640009 x_d4_p0 + 2.44140625 x_d6_p0
               <= 145.326633165829
 capacity_1_8: 2.44140625 x_d0_p0 + 1.5625 x_d1_p0 + 5.72562441369606 x_d6_p0
               <= 103.316582914573
 capacity_1_4: 1.5625 x_d3_p0 <= 89.2462311557789
 capacity_2_3: 2.44140625 x_d6_p0 <= 168.542713567839
 capacity_2_6: 8.94628814640009 x_d4_p0 <= 137.085427135678
 capacity_3_4: <= 136.78391959799
 capacity_3_6: <= 161.306532663317
 capacity_4_5: 1.5625 x_d3_p0 <= 115.376884422111
 capacity_4_7: 1.5625 x_d5_p0 <= 97.5879396984925
 capacity_4_9: 1.5625 x_d5_p0 <= 45.6281407035176
 capacity_6_7: 8.94628814640009 x_d4_p0 <= 113.56783919598
 capacity_6_9: x_d2_p0 <= 20.9045226130653
 capacity_8_9: 5.72562441369606 x_d0_p0 <= 146.532663316583
End
